NAME : KROC99A.26113.tour
COMMENT : Cost = 0_26113
COMMENT : Found by LKH [Keld Helsgaun] Sun Sep 17 16:52:41 2017
TYPE : TOUR
DIMENSION : 99
TOUR_SECTION
1
53
24
7
81
77
9
37
29
18
49
92
98
10
36
57
14
4
60
30
68
21
88
41
59
3
69
73
33
99
96
80
45
91
19
66
63
44
83
11
52
86
95
48
51
16
61
26
32
46
12
40
27
78
42
47
6
54
72
85
43
5
56
87
28
38
71
39
97
58
34
89
25
17
8
22
74
82
62
50
94
70
75
93
90
23
35
2
76
79
65
31
67
55
64
20
13
15
84
-1
EOF
